O16 H32  : POSCAR generated by Gabedit
       1.0000000000
             8.9999920000          0.0000000000          0.0000000000
             0.0000000000          7.7939920000          0.0000000000
             0.0000000000          0.0000000000          7.3479940000
           O      H 
          16     32 
Cartesian
               -0.0021700000         -0.0262230000         -0.0089330000
                4.4972580000          0.0228480000          0.0135140000
                2.2634470000          3.9030740000         -0.0111010000
                6.7180780000          3.8907130000          0.0030620000
                2.2264150000          1.3082710000          0.9156250000
                6.7658100000          1.2913990000          0.9263850000
               -0.0098310000          5.1702450000          0.9039050000
                4.4927860000          5.2234140000          0.9285830000
                2.2696180000          1.2871480000          3.6665410000
                6.7777590000          1.3051240000          3.6818900000
               -0.0100450000          5.1828760000          3.6610680000
                4.4857390000          5.2082910000          3.6842490000
                0.0246250000         -0.0136970000          4.5846210000
                4.5278920000          0.0112830000          4.6035950000
                2.2355750000          3.8878220000          4.5861290000
                6.7344550000          3.9067050000          4.5961620000
                0.7898410000          0.4622470000          0.3411390000
                8.2041390000          0.4666900000          0.3314870000
                4.4933270000          6.8694340000          0.3171270000
                4.4975920000         -0.0147620000          6.3680440000
                2.2377680000          2.9738430000          0.3417420000
                1.4431030000          4.3474980000          0.3325380000
                7.5369990000          4.3601380000          0.3155050000
                6.7620030000          3.9033320000          6.3578600000
                3.0447620000          0.8358020000          0.6068890000
                2.2614790000          1.2929140000          1.9092330000
                5.9476390000          0.8439390000          0.5806530000
                6.7331200000          2.2215380000          0.5772810000
               -0.0054290000          6.1177590000          0.6012890000
               -0.0002680000          5.2069350000          1.8973650000
                3.6985930000          4.7291700000          0.5916640000
                5.2842500000          4.7368340000          0.5738490000
                1.4483580000          0.8475080000          4.0148540000
                2.2474960000          2.2175460000          4.0158990000
                6.7416290000          1.2933380000          2.6884060000
                5.9539960000          0.8373090000          3.9847160000
                0.0113120000          6.1120150000          4.0143440000
                0.8124380000          4.7446850000          4.0081950000
                4.5095290000          5.1870510000          2.6905340000
                5.3079560000          4.7345310000          3.9818170000
               -0.0092020000          0.0090940000          5.5780880000
                8.2046550000          0.4554790000          4.2745840000
                3.7021320000          0.4506770000          4.2670450000
                4.5043050000          6.8761230000          4.2497380000
                2.2605070000          3.9029170000          5.5800670000
                3.0583030000          4.3566580000          4.2838380000
                6.7613010000          2.9758010000          4.2480000000
                7.5587880000          4.3473580000          4.2567980000
